10062.0
[3, 6, 3, 0, 9, 9, 5, 5, 3, 7, 7, 4, 1, 9, 9, 9, 9, 2, 5, 3, 0, 0, 0, 4, 0, 0, 7, 4, 4, 7, 7, 7, 3, 3, 3, 5, 9, 9, 0, 6, 0, 9, 9, 1, 5, 5, 5, 5, 5, 3, 3, 5, 6, 0, 0, 0, 9, 6, 1, 2, 1, 7, 7, 7, 3, 3, 0, 4, 8, 7, 3, 6, 6, 6, 6, 4, 4, 3, 3, 4, 3, 5, 2, 2, 2, 1, 6, 7, 2, 7, 1, 2, 2, 2, 2, 2, 2, 2, 2, 2]